GLPSOL--GLPK LP/MIP Solver 5.0
Parameter(s) specified in the command line:
 --lp ../modeles/15_149.lp --log 15_149.log
Reading problem data from '../modeles/15_149.lp'...
2296 rows, 4500 columns, 15720 non-zeros
2235 integer variables, all of which are binary
6817 lines were read
GLPK Integer Optimizer 5.0
2296 rows, 4500 columns, 15720 non-zeros
2235 integer variables, all of which are binary
Preprocessing...
2190 constraint coefficient(s) were reduced
2296 rows, 4485 columns, 15705 non-zeros
2235 integer variables, all of which are binary
Scaling...
 A: min|aij| =  1.802e-04  max|aij| =  4.000e+00  ratio =  2.220e+04
GM: min|aij| =  8.192e-02  max|aij| =  1.221e+01  ratio =  1.490e+02
EQ: min|aij| =  6.711e-03  max|aij| =  1.000e+00  ratio =  1.490e+02
2N: min|aij| =  3.906e-03  max|aij| =  1.741e+00  ratio =  4.456e+02
Constructing initial basis...
Size of triangular part is 2296
Solving LP relaxation...
GLPK Simplex Optimizer 5.0
2296 rows, 4485 columns, 15705 non-zeros
      0: obj =   3.000000000e+01 inf =   8.545e+02 (31)
    194: obj =   4.986711712e-01 inf =   0.000e+00 (0)
*   513: obj =  -3.870889262e+00 inf =   2.874e-14 (0)
OPTIMAL LP SOLUTION FOUND
Integer optimization begins...
Long-step dual simplex will be used
+   513: mip =     not found yet >=              -inf        (1; 0)
+   616: >>>>>  -3.869966443e+00 >=  -3.870889262e+00 < 0.1% (82; 0)
+   642: >>>>>  -3.870889262e+00 >=  -3.870889262e+00 < 0.1% (8; 80)
+   642: mip =  -3.870889262e+00 >=     tree is empty   0.0% (0; 171)
INTEGER OPTIMAL SOLUTION FOUND
Time used:   0.5 secs
Memory used: 6.6 Mb (6915555 bytes)
